r = [
0,11,1,17,29,33,11,11,23,24,30,17,1,25,32,31,18,8,23,7,7,19,27,12,32,21,0
];
p = [
0,10,14,2,1,4,28,1,30,24,14,27,23,9,27,9,8,2,5,15,30,13,27,2,3,3,0
];
e = [
0,16,18,19,16,12,9,20,8,12,6,11,8,16,18,4,6,20,1,11,1,13,16,15,6,3,0
];
d = [
0,442,208,305,316,198,327,374,332,410,407,336,244,446,427,405,183,415,199,211,188,250,190,224,295,171,454
];
d_bar = [
0,451,221,307,317,202,352,375,359,432,420,360,265,454,451,413,190,417,204,225,215,262,214,226,298,174,454
];
w = [
0,1.777777778,1.384615385,9.5,16,3,0.36,20,0.296296296,0.545454545,0.461538462,0.458333333,0.380952381,2,0.75,0.5,0.857142857,10,0.2,0.785714286,0.037037037,1.083333333,0.666666667,7.5,2,1,0
];
